Set parameter Username
Set parameter LogFile to value "gurobi.log"
Academic license - for non-commercial use only - expires 2024-05-02
Using license file /Users/sissi/gurobi.lic

Gurobi Optimizer version 10.0.1 build v10.0.1rc0 (mac64[arm])
Copyright (c) 2023, Gurobi Optimization, LLC

Read OPB format model from file pbo/p_pbo_0_4684.opb
Reading time = 0.01 seconds
(null): 2005 rows, 1057 columns, 5973 nonzeros

CPU model: Apple M2
Thread count: 8 physical cores, 8 logical processors, using up to 8 threads

Optimize a model with 2005 rows, 1057 columns and 5973 nonzeros
Model fingerprint: 0x34dcc57e
Variable types: 0 continuous, 1057 integer (1057 binary)
Coefficient statistics:
  Matrix range     [1e+00, 1e+00]
  Objective range  [1e+00, 4e+00]
  Bounds range     [1e+00, 1e+00]
  RHS range        [1e+00, 1e+00]
Found heuristic solution: objective -354.0000000
Presolve removed 1137 rows and 579 columns
Presolve time: 0.00s
Presolved: 868 rows, 478 columns, 2604 nonzeros
Variable types: 0 continuous, 478 integer (478 binary)

Root relaxation: objective -5.750000e+02, 129 iterations, 0.00 seconds (0.00 work units)

    Nodes    |    Current Node    |     Objective Bounds      |     Work
 Expl Unexpl |  Obj  Depth IntInf | Incumbent    BestBd   Gap | It/Node Time

     0     0 -575.00000    0   44 -354.00000 -575.00000  62.4%     -    0s
H    0     0                    -355.0000000 -555.50000  56.5%     -    0s
     0     0 -402.62055    0  473 -355.00000 -402.62055  13.4%     -    0s
     0     0 -401.83169    0  467 -355.00000 -401.83169  13.2%     -    0s
     0     0 -401.39123    0  472 -355.00000 -401.39123  13.1%     -    0s
     0     0 -401.34782    0  474 -355.00000 -401.34782  13.1%     -    0s
H    0     0                    -395.0000000 -395.00000  0.00%     -    0s
     0     0          -    0      -395.00000 -395.00000  0.00%     -    0s

Cutting planes:
  Gomory: 1
  MIR: 73
  Zero half: 1
  RLT: 368

Explored 1 nodes (2720 simplex iterations) in 0.48 seconds (0.34 work units)
Thread count was 8 (of 8 available processors)

Solution count 3: -395 -355 -354 
No other solutions better than -395

Optimal solution found (tolerance 1.00e-04)
Best objective -3.950000000000e+02, best bound -3.950000000000e+02, gap 0.0000%

Wrote result file 'solution/p_0_4684.sol'

